
Gurobi 9.1.2 (linux64, gurobi_cl) logging started Mon Jul  5 21:53:17 2021

Academic license - for non-commercial use only - expires 2021-07-24
Using license file /opt/gurobi/gurobi.lic
Set parameter LogFile to value gurobi.log

Gurobi Optimizer version 9.1.2 build v9.1.2rc0 (linux64)
Copyright (c) 2021, Gurobi Optimization, LLC

Read LP format model from file /tmp/77c02a3529824449afedc420b81fff6c-pulp.lp
Reading time = 0.54 seconds
OBJ: 50542 rows, 5871 columns, 504586 nonzeros
Thread count: 16 physical cores, 32 logical processors, using up to 32 threads
Optimize a model with 50542 rows, 5871 columns and 504586 nonzeros
Model fingerprint: 0x758234bd
Variable types: 90 continuous, 5781 integer (5781 binary)
Coefficient statistics:
  Matrix range     [4e-02, 1e+03]
  Objective range  [1e+00, 1e+00]
  Bounds range     [1e+00, 1e+03]
  RHS range        [1e+00, 1e+03]
Presolve removed 38940 rows and 1793 columns
Presolve time: 0.63s
Presolved: 11602 rows, 4078 columns, 125334 nonzeros
Variable types: 90 continuous, 3988 integer (3988 binary)

Root relaxation: objective 8.436173e+00, 4763 iterations, 0.72 seconds

    Nodes    |    Current Node    |     Objective Bounds      |     Work
 Expl Unexpl |  Obj  Depth IntInf | Incumbent    BestBd   Gap | It/Node Time

     0     0    8.43617    0  355          -    8.43617      -     -    2s
H    0     0                      84.0601068    8.43617  90.0%     -    2s
     0     0   14.39270    0  427   84.06011   14.39270  82.9%     -    4s
     0     0   16.92933    0  403   84.06011   16.92933  79.9%     -    4s
     0     0   16.92933    0  422   84.06011   16.92933  79.9%     -    4s
     0     0   18.32397    0  533   84.06011   18.32397  78.2%     -    5s
     0     0   19.03668    0  523   84.06011   19.03668  77.4%     -    5s
     0     0   19.05472    0  515   84.06011   19.05472  77.3%     -    5s
     0     0   19.05472    0  517   84.06011   19.05472  77.3%     -    5s
     0     0   21.05607    0  599   84.06011   21.05607  75.0%     -    6s
     0     0   21.13982    0  566   84.06011   21.13982  74.9%     -    6s
     0     0   21.13982    0  543   84.06011   21.13982  74.9%     -    6s
     0     0   21.23876    0  572   84.06011   21.23876  74.7%     -    7s
     0     0   21.41354    0  567   84.06011   21.41354  74.5%     -    8s
     0     0   21.43173    0  550   84.06011   21.43173  74.5%     -    8s
     0     0   21.43173    0  537   84.06011   21.43173  74.5%     -    9s
H    0     0                      62.6625433   21.43173  65.8%     -   10s
     0     0   21.79465    0  624   62.66254   21.79465  65.2%     -   10s
     0     0   21.80131    0  577   62.66254   21.80131  65.2%     -   10s
     0     0   21.80131    0  613   62.66254   21.80131  65.2%     -   10s
     0     0   21.80131    0  617   62.66254   21.80131  65.2%     -   11s
     0     0   21.80131    0  623   62.66254   21.80131  65.2%     -   11s
H    0     0                      55.7990433   21.80131  60.9%     -   12s
     0     0   21.86417    0  616   55.79904   21.86417  60.8%     -   12s
     0     0   21.86417    0  623   55.79904   21.86417  60.8%     -   12s
H    0     0                      55.2638101   21.86417  60.4%     -   13s
     0     0   21.87767    0  702   55.26381   21.87767  60.4%     -   13s
     0     0   21.90541    0  670   55.26381   21.90541  60.4%     -   13s
     0     0   21.91761    0  667   55.26381   21.91761  60.3%     -   14s
     0     0   21.95676    0  658   55.26381   21.95676  60.3%     -   15s
H    0     0                      54.8371421   21.95676  60.0%     -   15s
     0     0   21.98200    0  682   54.83714   21.98200  59.9%     -   15s
     0     0   21.98225    0  698   54.83714   21.98225  59.9%     -   15s
     0     0   22.04587    0  756   54.83714   22.04587  59.8%     -   17s
     0     0   22.04587    0  557   54.83714   22.04587  59.8%     -   18s
H    0     0                      53.7403077   22.04587  59.0%     -   18s
H    0     0                      50.7044001   22.04587  56.5%     -   18s
H    0     2                      50.6431092   22.04587  56.5%     -   19s
     0     2   22.04587    0  535   50.64311   22.04587  56.5%     -   19s
     3     6 infeasible    2        50.64311   22.29523  56.0%   896   20s
H   42    52                      49.8308130   23.83249  52.2%   768   21s
H   44    52                      49.8018636   23.83249  52.1%   748   21s
H   48    52                      49.4629242   23.83249  51.8%   723   21s
H  107   116                      48.9353967   23.83249  51.3%   487   22s
H  147   153                      48.7625116   23.83249  51.1%   405   24s
H  151   153                      46.6409540   23.83249  48.9%   401   24s
   162   173   28.22598    9  372   46.64095   23.83249  48.9%   393   25s
H  300   305                      46.5648675   23.83249  48.8%   294   26s
  1345  1238   26.90827    8  414   46.56487   24.64543  47.1%   136   30s
  2180  1697   36.10368   44  557   46.56487   24.64543  47.1%   114   35s
H 2182  1613                      46.1486640   24.64543  46.6%   114   44s
H 2182  1532                      46.0946885   24.64543  46.5%   114   44s
  2183  1533   44.21697   46  486   46.09469   24.81047  46.2%   114   47s
H 2184  1457                      45.7219960   25.15346  45.0%   114   54s
H 2184  1384                      45.2191149   25.15346  44.4%   114   54s
  2185  1384   35.71172   37  552   45.21911   25.50948  43.6%   113   57s
  2186  1385   30.57921   34  668   45.21911   25.70461  43.2%   113   60s
  2187  1386   34.76149   17  575   45.21911   25.70461  43.2%   113   73s
H 2187  1317                      45.2191136   25.70461  43.2%   113   81s
  2189  1318   34.30868   45  540   45.21911   25.93967  42.6%   113  102s
  2190  1319   35.69231   54  660   45.21911   25.93967  42.6%   113  105s
H 2190  1253                      44.9698929   27.98014  37.8%   113  131s
H 2190  1190                      44.7383490   27.98014  37.5%   113  131s
H 2190  1130                      43.8850157   27.98014  36.2%   113  131s
H 2190  1073                      43.8788319   27.98014  36.2%   113  133s
H 2191  1020                      43.3209274   27.98014  35.4%   113  138s
  2193  1022   34.30868   52  732   43.32093   27.98014  35.4%   113  154s
  2194  1022   30.43143   18  746   43.32093   27.98014  35.4%   113  157s
H 2194   970                      43.1703606   28.27630  34.5%   113  168s
  2196   972   41.68735   43  712   43.17036   28.48359  34.0%   113  176s
  2197   972   34.30868   48  699   43.17036   28.48359  34.0%   113  180s
  2198   973   30.04547    7  469   43.17036   28.65462  33.6%   113  198s
  2199   974   34.08027   16  714   43.17036   28.65462  33.6%   113  202s
